RT is False
Default write of storage_offers_DA.csv just to have a file (but constraint should be inactive)
Reading model...
...model read.
creating competitive generators file...
...competitive generators recorded.
Loading data...
.. day-ahead data read.
Compiling instance...
...instance created.
Creating Offer Mitigation (model will solve as dispatch if TRUE)...
NOTE: storage offers will not be mitigated
...storage offer mitigation file created
Converting model to MPEC...
...converted
NOTE: initial MIP solve with only storage competitive to get feasible solution
Solving...

Welcome to IBM(R) ILOG(R) CPLEX(R) Interactive Optimizer 12.9.0.0
  with Simplex, Mixed Integer & Barrier Optimizers
5725-A06 5725-A29 5724-Y48 5724-Y49 5724-Y54 5724-Y55 5655-Y21
Copyright IBM Corp. 1988, 2019.  All Rights Reserved.

Type 'help' for a list of available commands.
Type 'help' followed by a command name for more
information on commands.

CPLEX> Logfile 'cplex.log' closed.
Logfile 'C:\Users\llavin\Desktop\test919\logs\tmp9kvlwg8f.cplex.log' open.
CPLEX> New value for parallel optimization mode: -1
CPLEX> New value for mixed integer optimality gap tolerance: 0.01
CPLEX> New value for integrality tolerance: 1e-09
CPLEX> New value for feasibility tolerance: 0.01
CPLEX> New value for deterministic time limit in ticks: 75000
CPLEX> Problem 'C:\Users\llavin\Desktop\test919\logs\tmpeoxdbmln.pyomo.lp' read.
Read time = 0.23 sec. (14.73 ticks)
CPLEX> Problem name         : C:\Users\llavin\Desktop\test919\logs\tmpeoxdbmln.pyomo.lp
Objective sense      : Maximize
Variables            :   53805  [Nneg: 1,  Box: 22000,  Free: 4464,
                                 Binary: 27340]
Objective nonzeros   :    9077
Linear constraints   :  123205  [Less: 41346,  Greater: 59096,  Equal: 22763]
  Nonzeros           :  291801
  RHS nonzeros       :   67539

Variables            : Min LB: -5000.000        Max UB: 1000000.       
Objective nonzeros   : Min   : 0.1000000        Max   : 2500.000       
Linear constraints   :
  Nonzeros           : Min   : 0.1000000        Max   : 1000000.       
  RHS nonzeros       : Min   : 0.1000000        Max   : 1000000.       
CPLEX> CPXPARAM_Parallel                                -1
CPXPARAM_Simplex_Tolerances_Feasibility          0.01
CPXPARAM_DetTimeLimit                            75000
CPXPARAM_MIP_Tolerances_MIPGap                   0.01
CPXPARAM_MIP_Tolerances_Integrality              1.0000000000000001e-09
Tried aggregator 3 times.
MIP Presolve eliminated 88447 rows and 18814 columns.
MIP Presolve added 3424 rows and 0 columns.
MIP Presolve modified 24904 coefficients.
Aggregator did 12978 substitutions.
Reduced MIP has 25204 rows, 21500 columns, and 71794 nonzeros.
Reduced MIP has 8501 binaries, 0 generals, 0 SOSs, and 0 indicators.
Presolve time = 0.30 sec. (176.38 ticks)
Probing fixed 431 vars, tightened 2948 bounds.
Probing time = 1.23 sec. (909.88 ticks)
Tried aggregator 2 times.
MIP Presolve eliminated 968 rows and 862 columns.
MIP Presolve modified 2261 coefficients.
Aggregator did 46 substitutions.
Reduced MIP has 24190 rows, 20592 columns, and 68858 nonzeros.
Reduced MIP has 8070 binaries, 0 generals, 0 SOSs, and 0 indicators.
Presolve time = 0.11 sec. (70.97 ticks)
Probing time = 0.05 sec. (16.84 ticks)
Clique table members: 6429.
MIP emphasis: balance optimality and feasibility.
MIP search method: dynamic search.
Parallel mode: opportunistic, using up to 32 threads.
Root relaxation solution time = 0.42 sec. (317.70 ticks)

        Nodes                                         Cuts/
   Node  Left     Objective  IInf  Best Integer    Best Bound    ItCnt     Gap

      0     0     1678.5314  2075                   1678.5314     7455         
      0     0     1657.6964    56                    Cuts: 25     7468         
      0     0     1657.6964    53                    Cuts: 44     7478         
      0     0     1657.6964    53                     Cuts: 8     7478         
      0     9    infeasible                           Cuts: 7     7611         
Elapsed time = 9.14 sec. (5052.47 ticks, tree = 0.02 MB, solutions = 0)
    441   257     -555.3024    18                   1652.9847    14289         
   1322   737     1349.8261    10                   1652.9847    16956         
   1956  1117     1349.8261    14                   1652.9847    41707         
   2545  1229     -313.2273    29                   1652.9847    79630         
   3013  1354    -4527.7558     3                   1652.9847    96324         
   3302  1509    infeasible                         1652.9847   104253         
   3540  1691      874.5912    13                   1652.9847   106901         
*  3681+ 1803                       -13024.2446     1652.9847           112.69%
   3847  1710    -4527.7558     1   -13024.2446     1652.9847   107062  112.69%
   4493  1968     -958.4490     5   -13024.2446     1652.9847   110239  112.69%
Elapsed time = 21.56 sec. (8092.85 ticks, tree = 121.77 MB, solutions = 1)
   4968  1957    -6962.8527     1   -13024.2446     1652.9847   110216  112.69%
   5385  2151    -6962.8527     1   -13024.2446     1652.9847   111490  112.69%
   5705  2401        cutoff         -13024.2446     1652.9847   112654  112.69%
   6004  2482    -5646.9654     1   -13024.2446     1652.9847   112997  112.69%
*  6087  2691      integral     0     1467.9871     1652.9847   113990   12.60%
   6456  2481        cutoff           1467.9871     1652.9847   113000   12.60%
   6767  2735     1581.3099     3     1467.9871     1652.9847   114066   12.60%
   7077   980     1470.4167     3     1467.9871     1652.9847   115235   12.60%
   7476   724     1606.4818     2     1467.9871     1652.9847   114884   12.60%
   8150   638     1602.2740     3     1467.9871     1652.9847   115170   12.60%
Elapsed time = 40.80 sec. (16885.45 ticks, tree = 7.48 MB, solutions = 2)
   9625   365     1482.8104     1     1467.9871     1652.9847   115329   12.60%
  10337   474     1599.2342     6     1467.9871     1652.9847   116564   12.60%
  10442  2097        cutoff           1467.9871     1646.0378   129394   12.13%
* 11226   110      integral     0     1570.7088     1642.0213   130336    4.54%
  12984   682     1613.0121     2     1570.7088     1642.0213   135109    4.54%
  16823  3256     1640.7015     6     1570.7088     1642.0213   156060    4.54%
  19937  4147        cutoff           1570.7088     1642.0213   162442    4.54%
  22414  5132        cutoff           1570.7088     1642.0213   170601    4.54%
  24263  6125        cutoff           1570.7088     1642.0213   181459    4.54%
  25733  6219     1624.5146     5     1570.7088     1642.0213   182118    4.54%
Elapsed time = 70.69 sec. (28117.29 ticks, tree = 24.32 MB, solutions = 3)
  27183  6528     1597.4800    14     1570.7088     1642.0213   184656    4.54%
  28435  6871        cutoff           1570.7088     1642.0213   187372    4.54%
  29518  6888     1639.9624     3     1570.7088     1642.0213   187538    4.54%
  30658  7282        cutoff           1570.7088     1642.0213   191316    4.54%
  31806  7409        cutoff           1570.7088     1642.0213   192413    4.54%
  32903  7733     1640.7015     3     1570.7088     1642.0213   195106    4.54%
  34004  7680     1598.2191     4     1570.7088     1642.0213   194664    4.54%
  35135  7883     1575.7504     3     1570.7088     1642.0213   196286    4.54%
  36213  8445        cutoff           1570.7088     1642.0213   201193    4.54%
* 36530  8747      integral     0     1598.3005     1642.0213   203893    2.74%
  37404  8715        cutoff           1598.3005     1642.0213   203552    2.74%
Elapsed time = 97.73 sec. (37662.85 ticks, tree = 35.92 MB, solutions = 4)
  38696  6786     1610.2718     8     1598.3005     1642.0213   208302    2.74%
  40105  6846     1640.7015     4     1598.3005     1642.0213   208724    2.74%
  41346  6894        cutoff           1598.3005     1642.0213   209982    2.74%
  42537  6918     1640.7015     5     1598.3005     1642.0213   210146    2.74%
  43778  7282        cutoff           1598.3005     1642.0213   214056    2.74%
  44976  7332     1640.7015     4     1598.3005     1642.0213   214404    2.74%
  46161  7639     1640.7015     5     1598.3005     1642.0213   217402    2.74%
  47323  8179        cutoff           1598.3005     1642.0213   223002    2.74%
  48431  8762        cutoff           1598.3005     1642.0213   229347    2.74%
  49513  8971     1640.7015     4     1598.3005     1642.0213   231344    2.74%
Elapsed time = 129.27 sec. (47208.70 ticks, tree = 36.52 MB, solutions = 4)
  50539  8901        cutoff           1598.3005     1642.0213   230778    2.74%
  51583  8541        cutoff           1598.3005     1642.0213   226900    2.74%
  52735  8671     1640.7015     3     1598.3005     1642.0213   228404    2.74%
  53805  9432        cutoff           1598.3005     1642.0213   236098    2.74%
  54888  9312        cutoff           1598.3005     1642.0213   235404    2.74%
  56002  9405     1640.7015     6     1598.3005     1642.0213   235766    2.74%
  57251 10249     1640.7015     5     1598.3005     1642.0213   245798    2.74%
  58295 10615     1623.4415     8     1598.3005     1642.0213   248628    2.74%
* 58698 10535      integral     0     1637.5836     1642.0213   248350    0.27%
  59506 10851     1618.7152     3     1637.5836     1642.0213   251053    0.27%
Elapsed time = 150.13 sec. (56182.68 ticks, tree = 46.44 MB, solutions = 5)
  60078 10661     1639.9624     3     1637.5836     1642.0213   249435    0.27%
  60434 10966     1639.9624     3     1637.5836     1642.0213   252438    0.27%

GUB cover cuts applied:  3
Clique cuts applied:  81
Cover cuts applied:  17
Implied bound cuts applied:  100
Flow cuts applied:  43
Mixed integer rounding cuts applied:  51
Gomory fractional cuts applied:  59

Root node processing (before b&c):
  Real time             =    7.63 sec. (5037.25 ticks)
Parallel b&c, 32 threads:
  Real time             =  143.38 sec. (53661.66 ticks)
  Sync time (average)   =    1.71 sec.
  Wait time (average)   =    0.13 sec.
                          ------------
Total (root+branch&cut) =  151.00 sec. (58698.91 ticks)

Solution pool: 5 solutions saved.

MIP - Integer optimal, tolerance (0.01/1e-06):  Objective =  1.6375836165e+03
Current MIP best bound =  1.6420212507e+03 (gap = 4.43763, 0.27%)
Solution time =  151.03 sec.  Iterations = 264123  Nodes = 60465 (6214)
Deterministic time = 58699.06 ticks  (388.66 ticks/sec)

CPLEX> Incumbent solution written to file 'C:\Users\llavin\Desktop\test919\logs\tmpcdhlqhla.cplex.sol'.
CPLEX> NOTE: no warmstart specified for MIP iteration, default behavior is true
NOTE: resolving with all competitive generators using storage-only solution to warmstart
Solving...

Welcome to IBM(R) ILOG(R) CPLEX(R) Interactive Optimizer 12.9.0.0
  with Simplex, Mixed Integer & Barrier Optimizers
5725-A06 5725-A29 5724-Y48 5724-Y49 5724-Y54 5724-Y55 5655-Y21
Copyright IBM Corp. 1988, 2019.  All Rights Reserved.

Type 'help' for a list of available commands.
Type 'help' followed by a command name for more
information on commands.

CPLEX> Logfile 'cplex.log' closed.
Logfile 'C:\Users\llavin\Desktop\test919\logs\tmpane9gxg_.cplex.log' open.
CPLEX> New value for parallel optimization mode: -1
CPLEX> New value for mixed integer optimality gap tolerance: 0.01
CPLEX> New value for integrality tolerance: 1e-09
CPLEX> New value for feasibility tolerance: 0.01
CPLEX> New value for deterministic time limit in ticks: 75000
CPLEX> Problem 'C:\Users\llavin\Desktop\test919\logs\tmpd8ogisyh.pyomo.lp' read.
Read time = 0.23 sec. (14.75 ticks)
CPLEX> MIP start file 'C:\Users\llavin\Desktop\test919\logs\tmpalkkybkl.cplex.mst' read.
CPLEX> Problem name         : C:\Users\llavin\Desktop\test919\logs\tmpd8ogisyh.pyomo.lp
Objective sense      : Maximize
Variables            :   54525  [Nneg: 1,  Box: 22720,  Free: 4464,
                                 Binary: 27340]
Objective nonzeros   :    9773
Linear constraints   :  123205  [Less: 41346,  Greater: 59096,  Equal: 22763]
  Nonzeros           :  291801
  RHS nonzeros       :   67539

Variables            : Min LB: -5000.000        Max UB: 1000000.       
Objective nonzeros   : Min   : 0.1000000        Max   : 2500.000       
Linear constraints   :
  Nonzeros           : Min   : 0.1000000        Max   : 1000000.       
  RHS nonzeros       : Min   : 0.1000000        Max   : 1000000.       
CPLEX> CPXPARAM_Parallel                                -1
CPXPARAM_Simplex_Tolerances_Feasibility          0.01
CPXPARAM_DetTimeLimit                            75000
CPXPARAM_MIP_Tolerances_MIPGap                   0.01
CPXPARAM_MIP_Tolerances_Integrality              1.0000000000000001e-09
Warning:  No solution found from 1 MIP starts.
Retaining values of one MIP start for possible repair.
Tried aggregator 3 times.
MIP Presolve eliminated 88447 rows and 19534 columns.
MIP Presolve added 3424 rows and 0 columns.
MIP Presolve modified 24904 coefficients.
Aggregator did 12978 substitutions.
Reduced MIP has 25204 rows, 21500 columns, and 71794 nonzeros.
Reduced MIP has 8501 binaries, 0 generals, 0 SOSs, and 0 indicators.
Presolve time = 0.28 sec. (176.75 ticks)
Probing fixed 431 vars, tightened 2948 bounds.
Probing time = 1.25 sec. (909.88 ticks)
Tried aggregator 2 times.
MIP Presolve eliminated 968 rows and 862 columns.
MIP Presolve modified 2261 coefficients.
Aggregator did 46 substitutions.
Reduced MIP has 24190 rows, 20592 columns, and 68858 nonzeros.
Reduced MIP has 8070 binaries, 0 generals, 0 SOSs, and 0 indicators.
Presolve time = 0.11 sec. (70.98 ticks)
Probing time = 0.03 sec. (16.84 ticks)
Clique table members: 6429.
MIP emphasis: balance optimality and feasibility.
MIP search method: dynamic search.
Parallel mode: opportunistic, using up to 32 threads.
Root relaxation solution time = 0.34 sec. (278.16 ticks)

        Nodes                                         Cuts/
   Node  Left     Objective  IInf  Best Integer    Best Bound    ItCnt     Gap

      0     0    50495.4073  2153                  50495.4073     5986         
      0     0    50491.1114   694                   Cuts: 754     6324         
      0     0    50489.1019   562                   Cuts: 566     6562         
      0     0    50438.8703   462                   Cuts: 325     6679         
      0     0    50438.8703   436                   Cuts: 126     6730         
      0     0    50438.8703   430                    Cuts: 53     6738         
      0     0    50438.8703   430                    Cuts: 36     6738         
Repair heuristic found nothing.
      0     8    infeasible                          Cuts: 11     7054         
Elapsed time = 9.77 sec. (5429.52 ticks, tree = 0.02 MB, solutions = 0)
    308    92    38999.0847   422                  50429.0349    11477         
    801   159    41636.8683   412                  50429.0349    17879         
   1423   666    49027.8256   374                  50429.0349    25571         
   2277   840    50376.3338   390                  50429.0349    26560         
   3189  1752    infeasible                        50429.0349    39853         
   3850  2135    50383.2603   335                  50429.0349    46831         
   4510  2896    50390.2252   411                  50429.0349    60147         
   5132  3269    50359.9038   397                  50429.0349    66622         
   5755  3710    44864.7205   391                  50429.0349    72295         
   9784  7386    50137.3297   319                  50429.0349    81335         
Elapsed time = 28.52 sec. (8532.12 ticks, tree = 63.32 MB, solutions = 0)
  14134 10919    50343.6993   277                  50429.0349    86271         
* 16267+ 7236                        48477.5212    50429.0349             4.03%
* 17054 14016      integral     0    50095.1539    50429.0349    94169    0.67%

Clique cuts applied:  22
Cover cuts applied:  2
Implied bound cuts applied:  49
Flow cuts applied:  497
Mixed integer rounding cuts applied:  32
Gomory fractional cuts applied:  48

Root node processing (before b&c):
  Real time             =    8.06 sec. (5393.42 ticks)
Parallel b&c, 32 threads:
  Real time             =   29.47 sec. (5563.25 ticks)
  Sync time (average)   =    0.82 sec.
  Wait time (average)   =    0.00 sec.
                          ------------
Total (root+branch&cut) =   37.53 sec. (10956.67 ticks)

Solution pool: 3 solutions saved.

MIP - Integer optimal, tolerance (0.01/1e-06):  Objective =  5.0095153938e+04
Current MIP best bound =  5.0429034883e+04 (gap = 333.881, 0.67%)
Solution time =   37.55 sec.  Iterations = 102250  Nodes = 18071 (4334)
Deterministic time = 10956.83 ticks  (291.82 ticks/sec)

CPLEX> Incumbent solution written to file 'C:\Users\llavin\Desktop\test919\logs\tmpnxf9tes7.cplex.sol'.
CPLEX> Exporting results... 
